p cnf 15 23
15 10 -2 0
15 -6 4 0
14 11 9 0
-14 11 2 0
14 10 -3 0
-14 -6 5 0
-14 6 2 0
-14 3 -2 0
13 -12 2 0
-13 -11 -1 0
13 -8 4 0
12 11 -9 0
-12 -10 -6 0
-12 10 -2 0
12 -5 -4 0
-12 -5 -2 0
-11 -8 -2 0
-9 -8 6 0
-9 3 1 0
7 -6 -4 0
7 -3 2 0
-7 -3 1 0
-5 -4 -1 0
